MAXIMIZE
OBJ:  +8.05x0 -4.45x1 -7.62x2 -9.91x3 +35.81x4 -91.90x5 -140.39x6
SUBJECT TO

C0:  +1.60x0 +9.88x1 +8.68x2 +1.44x3 +8.88x4 +2.44x5 +17.41x6 + s0 = 56.49
C1:  +11.43x0 +5.79x1 +14.03x2 +0.88x3 +3.88x4 +8.05x5 +7.54x6 + s1 = 118.52
C2:  +0.18x0 +12.15x1 +19.14x2 +19.13x3 +6.37x4 +5.00x5 +6.98x6 + s2 = 99.51
Binary
x4
x5
x6
General
END